c turning on binary mode checking
c parsing input formula with 259840 variables and 1039929 clauses
c finished parsing, read 23867029 bytes from proof file
c detected empty clause; start verification via backward checking
c 16567 of 1039929 clauses in core                            
c 21893 of 608062 lemmas in core using 128046 resolution steps
c 0 RAT lemmas in core; 1393 redundant literals in core lemmas
s VERIFIED
c verification time: 2.990 seconds
